amountOfEmployees = 100;
horizonLength = 7;
amountOfShifts = 4;

shiftsPerDay = [|24,20,0,0,
|26,8,5,0,
|29,3,11,0,
|28,6,8,0,
|47,13,10,0,
|21,23,0,0,
|37,31,0,0,
|];

preferences = array3d(1..100,1..7,1..4,[1,2,4,4,3,3,3,3,1,2,4,4,1,2,4,4,3,3,3,3,3,3,3,3,1,2,4,4,4,4,3,3,2,4,2,2,4,4,3,3,4,4,3,3,2,4,2,2,2,4,2,2,4,4,3,3,4,4,4,4,2,3,2,2,4,4,4,4,4,4,4,4,2,3,2,2,2,3,2,2,4,4,4,4,3,2,3,3,2,3,2,2,3,2,3,3,3,2,3,3,2,3,2,2,2,3,2,2,3,2,3,3,3,4,3,3,2,4,2,2,3,4,3,3,3,4,3,3,2,4,2,2,2,4,2,2,3,4,3,3,4,3,4,4,2,3,2,2,4,3,4,4,4,3,4,4,2,3,2,2,2,3,2,2,4,3,4,4,3,2,3,3,4,4,4,4,3,2,3,3,3,2,3,3,4,4,4,4,4,4,4,4,3,2,3,3,1,3,1,1,3,3,3,3,1,3,1,1,1,3,1,1,3,3,3,3,3,3,3,3,1,3,1,1,3,2,3,3,2,4,2,2,3,2,3,3,3,2,3,3,2,4,2,2,2,4,2,2,3,2,3,3,4,4,4,4,2,1,2,2,4,4,4,4,4,4,4,4,2,1,2,2,2,1,2,2,4,4,4,4,3,2,3,3,4,1,4,4,3,2,3,3,3,2,3,3,4,1,4,4,4,1,4,4,3,2,3,3,3,1,1,1,3,1,3,3,3,1,1,1,3,1,1,1,3,1,3,3,3,1,3,3,3,1,1,1,1,2,1,1,3,4,3,3,1,2,1,1,1,2,1,1,3,4,3,3,3,4,3,3,1,2,1,1,1,2,3,3,3,2,3,3,1,2,3,3,1,2,3,3,3,2,3,3,3,2,3,3,1,2,3,3,4,3,4,4,3,4,3,3,4,3,4,4,4,3,4,4,3,4,3,3,3,4,3,3,4,3,4,4,2,1,2,2,2,1,2,2,2,1,2,2,2,1,2,2,2,1,2,2,2,1,2,2,2,1,2,2,3,1,1,1,3,2,3,3,3,1,1,1,3,1,1,1,3,2,3,3,3,2,3,3,3,1,1,1,4,2,4,4,1,1,1,1,4,2,4,4,4,2,4,4,1,1,1,1,1,1,1,1,4,2,4,4,4,1,4,4,2,1,2,2,4,1,4,4,4,1,4,4,2,1,2,2,2,1,2,2,4,1,4,4,2,1,2,2,2,4,2,2,2,1,2,2,2,1,2,2,2,4,2,2,2,4,2,2,2,1,2,2,1,4,1,1,4,3,4,4,1,4,1,1,1,4,1,1,4,3,4,4,4,3,4,4,1,4,1,1,1,2,3,3,2,3,2,2,1,2,3,3,1,2,3,3,2,3,2,2,2,3,2,2,1,2,3,3,4,2,4,4,2,1,2,2,4,2,4,4,4,2,4,4,2,1,2,2,2,1,2,2,4,2,4,4,4,4,4,4,3,4,3,3,4,4,4,4,4,4,4,4,3,4,3,3,3,4,3,3,4,4,4,4,3,2,3,3,2,3,2,2,3,2,3,3,3,2,3,3,2,3,2,2,2,3,2,2,3,2,3,3,3,2,3,3,2,2,2,2,3,2,3,3,3,2,3,3,2,2,2,2,2,2,2,2,3,2,3,3,4,2,4,4,1,1,1,1,4,2,4,4,4,2,4,4,1,1,1,1,1,1,1,1,4,2,4,4,4,4,4,4,2,3,2,2,4,4,4,4,4,4,4,4,2,3,2,2,2,3,2,2,4,4,4,4,3,4,3,3,1,4,1,1,3,4,3,3,3,4,3,3,1,4,1,1,1,4,1,1,3,4,3,3,4,3,4,4,1,3,1,1,4,3,4,4,4,3,4,4,1,3,1,1,1,3,1,1,4,3,4,4,1,3,1,1,1,3,1,1,1,3,1,1,1,3,1,1,1,3,1,1,1,3,1,1,1,3,1,1,3,3,3,3,2,1,2,2,3,3,3,3,3,3,3,3,2,1,2,2,2,1,2,2,3,3,3,3,3,4,3,3,3,1,3,3,3,4,3,3,3,4,3,3,3,1,3,3,3,1,3,3,3,4,3,3,4,2,4,4,2,1,2,2,4,2,4,4,4,2,4,4,2,1,2,2,2,1,2,2,4,2,4,4,4,2,4,4,3,2,3,3,4,2,4,4,4,2,4,4,3,2,3,3,3,2,3,3,4,2,4,4,3,3,3,3,2,2,2,2,3,3,3,3,3,3,3,3,2,2,2,2,2,2,2,2,3,3,3,3,2,2,2,2,2,2,2,2,2,2,2,2,2,2,2,2,2,2,2,2,2,2,2,2,2,2,2,2,4,4,4,4,1,1,1,1,4,4,4,4,4,4,4,4,1,1,1,1,1,1,1,1,4,4,4,4,2,3,2,2,2,3,2,2,2,3,2,2,2,3,2,2,2,3,2,2,2,3,2,2,2,3,2,2,3,1,3,3,3,2,3,3,3,1,3,3,3,1,3,3,3,2,3,3,3,2,3,3,3,1,3,3,4,3,4,4,3,4,3,3,4,3,4,4,4,3,4,4,3,4,3,3,3,4,3,3,4,3,4,4,4,4,4,4,1,2,1,1,4,4,4,4,4,4,4,4,1,2,1,1,1,2,1,1,4,4,4,4,4,4,4,4,3,3,3,3,4,4,4,4,4,4,4,4,3,3,3,3,3,3,3,3,4,4,4,4,2,3,2,2,1,1,1,1,2,3,2,2,2,3,2,2,1,1,1,1,1,1,1,1,2,3,2,2,3,3,3,3,3,1,3,3,3,3,3,3,3,3,3,3,3,1,3,3,3,1,3,3,3,3,3,3,2,2,2,2,2,2,2,2,2,2,2,2,2,2,2,2,2,2,2,2,2,2,2,2,2,2,2,2,3,4,3,3,2,3,2,2,3,4,3,3,3,4,3,3,2,3,2,2,2,3,2,2,3,4,3,3,3,1,1,1,2,1,2,2,3,1,1,1,3,1,1,1,2,1,2,2,2,1,2,2,3,1,1,1,4,2,4,4,3,2,3,3,4,2,4,4,4,2,4,4,3,2,3,3,3,2,3,3,4,2,4,4,3,4,3,3,2,1,2,2,3,4,3,3,3,4,3,3,2,1,2,2,2,1,2,2,3,4,3,3,3,2,3,3,2,1,2,2,3,2,3,3,3,2,3,3,2,1,2,2,2,1,2,2,3,2,3,3,1,2,1,1,2,2,2,2,1,2,1,1,1,2,1,1,2,2,2,2,2,2,2,2,1,2,1,1,3,4,3,3,2,1,2,2,3,4,3,3,3,4,3,3,2,1,2,2,2,1,2,2,3,4,3,3,4,3,4,4,4,3,4,4,4,3,4,4,4,3,4,4,4,3,4,4,4,3,4,4,4,3,4,4,3,3,3,3,3,1,3,3,3,3,3,3,3,3,3,3,3,1,3,3,3,1,3,3,3,3,3,3,3,3,3,3,4,3,4,4,3,3,3,3,3,3,3,3,4,3,4,4,4,3,4,4,3,3,3,3,3,4,3,3,1,3,1,1,3,4,3,3,3,4,3,3,1,3,1,1,1,3,1,1,3,4,3,3,2,2,2,2,1,1,1,1,2,2,2,2,2,2,2,2,1,1,1,1,1,1,1,1,2,2,2,2,4,4,4,4,3,4,3,3,4,4,4,4,4,4,4,4,3,4,3,3,3,4,3,3,4,4,4,4,4,4,4,4,4,1,4,4,4,4,4,4,4,4,4,4,4,1,4,4,4,1,4,4,4,4,4,4,4,4,4,4,3,3,3,3,4,4,4,4,4,4,4,4,3,3,3,3,3,3,3,3,4,4,4,4,1,3,1,1,4,1,4,4,1,3,1,1,1,3,1,1,4,1,4,4,4,1,4,4,1,3,1,1,2,2,2,2,3,3,3,3,2,2,2,2,2,2,2,2,3,3,3,3,3,3,3,3,2,2,2,2,1,4,1,1,2,2,2,2,1,4,1,1,1,4,1,1,2,2,2,2,2,2,2,2,1,4,1,1,4,4,4,4,3,3,3,3,4,4,4,4,4,4,4,4,3,3,3,3,3,3,3,3,4,4,4,4,2,2,2,2,3,3,3,3,2,2,2,2,2,2,2,2,3,3,3,3,3,3,3,3,2,2,2,2,2,3,2,2,1,3,1,1,2,3,2,2,2,3,2,2,1,3,1,1,1,3,1,1,2,3,2,2,4,2,4,4,4,3,4,4,4,2,4,4,4,2,4,4,4,3,4,4,4,3,4,4,4,2,4,4,3,4,3,3,2,3,2,2,3,4,3,3,3,4,3,3,2,3,2,2,2,3,2,2,3,4,3,3,4,4,4,4,2,1,2,2,4,4,4,4,4,4,4,4,2,1,2,2,2,1,2,2,4,4,4,4,4,2,4,4,2,3,2,2,4,2,4,4,4,2,4,4,2,3,2,2,2,3,2,2,4,2,4,4,3,4,3,3,2,1,2,2,3,4,3,3,3,4,3,3,2,1,2,2,2,1,2,2,3,4,3,3,2,2,2,2,3,3,3,3,2,2,2,2,2,2,2,2,3,3,3,3,3,3,3,3,2,2,2,2,3,1,3,3,2,1,2,2,3,1,3,3,3,1,3,3,2,1,2,2,2,1,2,2,3,1,3,3,3,4,3,3,2,2,2,2,3,4,3,3,3,4,3,3,2,2,2,2,2,2,2,2,3,4,3,3,4,4,4,4,1,4,1,1,4,4,4,4,4,4,4,4,1,4,1,1,1,4,1,1,4,4,4,4,3,1,3,3,2,2,2,2,3,1,3,3,3,1,3,3,2,2,2,2,2,2,2,2,3,1,3,3,2,4,2,2,4,3,4,4,2,4,2,2,2,4,2,2,4,3,4,4,4,3,4,4,2,4,2,2,3,4,3,3,1,3,1,1,3,4,3,3,3,4,3,3,1,3,1,1,1,3,1,1,3,4,3,3,3,1,3,3,4,1,4,4,3,1,3,3,3,1,3,3,4,1,4,4,4,1,4,4,3,1,3,3,3,4,3,3,1,3,1,1,3,4,3,3,3,4,3,3,1,3,1,1,1,3,1,1,3,4,3,3,4,2,4,4,4,3,4,4,4,2,4,4,4,2,4,4,4,3,4,4,4,3,4,4,4,2,4,4,1,2,1,1,4,1,4,4,1,2,1,1,1,2,1,1,4,1,4,4,4,1,4,4,1,2,1,1,3,1,3,3,3,2,3,3,3,1,3,3,3,1,3,3,3,2,3,3,3,2,3,3,3,1,3,3,2,4,2,2,3,1,3,3,2,4,2,2,2,4,2,2,3,1,3,3,3,1,3,3,2,4,2,2,1,4,1,1,2,4,2,2,1,4,1,1,1,4,1,1,2,4,2,2,2,4,2,2,1,4,1,1,1,4,1,1,1,3,1,1,1,4,1,1,1,4,1,1,1,3,1,1,1,3,1,1,1,4,1,1,3,2,3,3,3,2,3,3,3,2,3,3,3,2,3,3,3,2,3,3,3,2,3,3,3,2,3,3,2,3,2,2,4,2,4,4,2,3,2,2,2,3,2,2,4,2,4,4,4,2,4,4,2,3,2,2,3,3,3,3,2,3,2,2,3,3,3,3,3,3,3,3,2,3,2,2,2,3,2,2,3,3,3,3,1,4,1,1,3,4,3,3,1,4,1,1,1,4,1,1,3,4,3,3,3,4,3,3,1,4,1,1,4,4,4,4,3,3,3,3,4,4,4,4,4,4,4,4,3,3,3,3,3,3,3,3,4,4,4,4,2,2,2,2,2,1,2,2,2,2,2,2,2,2,2,2,2,1,2,2,2,1,2,2,2,2,2,2,3,2,3,3,2,1,2,2,3,2,3,3,3,2,3,3,2,1,2,2,2,1,2,2,3,2,3,3,2,1,2,2,3,3,3,3,2,1,2,2,2,1,2,2,3,3,3,3,3,3,3,3,2,1,2,2,1,1,1,1,4,1,4,4,1,1,1,1,1,1,1,1,4,1,4,4,4,1,4,4,1,1,1,1,3,2,3,3,2,3,2,2,3,2,3,3,3,2,3,3,2,3,2,2,2,3,2,2,3,2,3,3,4,2,4,4,1,3,1,1,4,2,4,4,4,2,4,4,1,3,1,1,1,3,1,1,4,2,4,4,3,2,3,3,4,1,4,4,3,2,3,3,3,2,3,3,4,1,4,4,4,1,4,4,3,2,3,3,3,2,3,3,3,3,3,3,3,2,3,3,3,2,3,3,3,3,3,3,3,3,3,3,3,2,3,3,]);

minShifts = 4;
maxShifts = 5;
minConsecShifts = 1;
maxConsecShifts = 7;

minConsecSameShifts = [1,1,1,1];
maxConsecSameShifts = [7,7,7,7];

minPerShifts = [0,0,0,0];
maxPerShifts = [5,5,4,7];